27 6
21 23 23 23 24 23
1 0 0 0 0 0 0 3 2 3 4
8 6 9 7 5 10 2 1 7
6 7 3 8 7 3 5 2 5 7
6 2 9 7 3 9 3 4 5 6 7 8
5 4 1 4 3 4 9 1 12
2 8 8 10 6 1 10 1 12
6 5 7 10 2 5 2 3 9 10 11
8 10 2 2 7 10 8 3 10 11 12
1 10 10 5 10 6 1 3 13 14 16
8 1 5 4 10 4 8 2 14 16
2 1 4 6 2 10 6 2 14 16
3 2 1 5 5 6 2 4 13 14 15 16
8 3 8 8 4 5 5 3 17 19 20
2 3 2 7 9 8 9 3 18 19 20
5 4 9 9 6 9 1 2 18 19
5 3 9 4 6 5 10 2 17 20
4 4 10 5 5 7 8 2 21 24
8 5 1 7 5 8 3 3 21 22 24
4 9 9 1 2 1 6 3 21 23 24
1 7 7 4 10 9 6 2 21 24
1 1 6 2 8 2 5 1 26
10 6 3 4 2 3 6 1 26
7 8 9 10 9 8 2 2 25 26
5 8 2 2 6 1 6 1 26
10 9 6 3 8 10 9 1 27
10 3 3 7 2 3 6 1 27
0 0 0 0 0 0 0 0
